100 10
550 688
585 678
493 511
228 487
302 626
509 787
682 297
455 620
520 637
404 375
170 924
185 425
42 733
523 132
725 216
432 573
379 459
207 364
484 213
692 670
242 740
721 744
895 243
601 590
332 788
686 434
181 350
217 536
756 364
464 675
570 492
408 409
804 493
550 387
762 237
314 680
260 727
185 802
905 364
358 793
769 560
290 365
260 480
454 385
693 381
585 478
394 649
289 556
20 744
390 620
666 616
650 770
372 715
591 476
752 605
759 309
821 552
468 331
813 574
631 720
366 849
723 456
170 605
567 334
512 335
393 896
304 220
832 468
502 451
269 833
218 746
354 827
240 867
269 244
221 467
590 686
438 814
514 462
501 676
47 793
505 771
402 662
644 438
244 478
180 616
574 677
452 654
575 719
628 540
166 418
578 844
276 412
119 513
230 410
441 415
155 574
443 840
100 809
805 519
823 551
